# Max 2-SAT - Ejemplo sección 4.3 del paper QUBO
# Formato: cada línea es una cláusula con 2 literales
# Los literales negativos se representan con signo negativo
# p cnf <num_variables> <num_clausulas>
p cnf 4 12
1 2 0
1 -2 0
-1 2 0
-1 -2 0
-1 3 0
-1 -3 0
2 -3 0
2 4 0
-2 3 0
-2 -3 0
3 4 0
-3 -4 0
